p cnf 1240 1323
c ind 797 798 799 812 819 845 906 907 920 927 0
c ind 931 933 936 952 954 957 969 970 989 991 0
c ind 995 1006 1007 1011 1012 1013 1017 1019 790 905 0
c ind 820 832 791 792 904 795 796 903 1193 1194 0
c ind 1192 1191 1189 1190 1188 1183 1187 1186 1185 1184 0
c ind 1225 1230 1207 1216 1211 1221 1238 1224 1229 1206 0
c ind 1215 1210 1220 1237 1181 1182 1223 1228 1205 1214 0
c ind 1209 1219 1236 1180 1222 1227 1175 1204 1213 1208 0
c ind 1218 1235 1179 1178 1199 1203 1233 1177 1176 1173 0
c ind 1174 1201 1231 1166 1167 1172 1232 1202 1171 1170 0
c ind 1169 1168 1226 1212 1217 1234 1164 1165 793 794 0
c ind 1163 1162 1160 1161 1159 1154 1158 1157 1156 1155 0
c ind 1200 1152 1153 1151 1146 1150 1149 1148 1147 1196 0
c ind 1144 1145 1137 1138 1143 1197 1142 1141 1140 1139 0
c ind 1135 1136 1134 1133 1131 1132 1130 1125 1129 1128 0
c ind 1127 1126 1123 1124 1122 1117 1121 1120 1119 1118 0
c ind 1198 1115 1116 1108 1109 1114 1113 1112 1195 1111 0
c ind 1110 1106 1107 1105 1104 1102 1103 1101 1096 1100 0
c ind 1099 1098 1097 1094 1095 1093 1088 1092 1091 1090 0
c ind 1089 1086 1087 1079 1080 1085 1084 1083 1082 1081 0
c ind 1077 1078 1076 1075 1073 1074 1072 1067 1071 1070 0
c ind 1069 1068 1065 1066 1064 1059 1063 1062 1061 1060 0
c ind 1057 1058 1050 1051 1056 1055 1054 1053 1052 1048 0
c ind 1049 1047 1046 1044 1045 1043 1038 1042 1041 1040 0
c ind 1039 1036 1037 1035 1030 1034 1033 1032 1031 1028 0
c ind 1029 1021 1022 1027 1026 1025 1024 1023 1001 1002 0
c ind 1000 999 998 1020 1010 1008 1009 997 996 1018 0
c ind 1005 994 1016 1014 1015 1003 1004 993 992 985 0
c ind 990 988 986 987 984 977 976 983 802 982 0
c ind 981 980 979 978 975 974 973 972 971 789 0
c ind 964 963 961 962 960 959 965 966 958 956 0
c ind 967 955 968 953 951 949 950 948 910 947 0
c ind 946 945 944 943 942 940 941 939 938 937 0
c ind 935 934 932 930 928 929 926 921 925 922 0
c ind 923 917 924 919 915 916 918 914 909 913 0
c ind 911 912 908 902 895 887 901 900 899 898 0
c ind 881 880 879 897 878 896 877 876 875 894 0
c ind 893 892 891 890 889 888 886 885 884 883 0
c ind 882 874 867 859 873 872 871 870 853 852 0
c ind 851 869 850 868 849 848 847 866 865 864 0
c ind 863 862 861 860 858 857 856 855 854 846 0
c ind 844 842 843 833 834 841 840 839 838 837 0
c ind 835 836 829 828 830 831 827 826 825 824 0
c ind 822 823 821 818 817 813 814 815 816 809 0
c ind 811 808 807 810 801 806 800 805 803 804 0
c ind 1 0
c ret 615 616 617 618 619 620 621 622 623 624 0
c ret 625 626 627 628 629 630 631 632 633 634 0
c ret 635 636 637 638 639 640 641 642 643 644 0
c ret 645 646 647 648 649 650 651 652 653 654 0
c ret 655 656 657 658 659 660 661 662 663 664 0
c ret 665 666 667 668 669 670 671 672 673 674 0
c ret 675 676 677 678 679 680 681 682 683 684 0
c ret 685 686 687 688 689 690 691 692 693 694 0
c ret 695 696 697 698 699 700 701 702 703 704 0
c ret 705 706 707 708 709 710 711 712 713 714 0
c ret 715 716 717 718 719 720 721 722 723 724 0
c ret 725 726 727 728 729 730 731 732 733 734 0
c ret 735 736 737 738 739 740 741 742 743 744 0
c ret 745 746 747 748 749 750 751 752 753 310 0
c ret 316 317 318 319 320 321 322 323 324 325 0
c ret 326 327 328 329 330 754 331 755 332 333 0
c ret 756 334 757 335 336 337 338 339 340 341 0
c ret 342 343 344 345 346 347 758 759 348 349 0
c ret 350 760 351 352 761 311 353 354 355 356 0
c ret 357 358 359 360 762 361 362 363 364 365 0
c ret 763 366 764 367 765 368 766 369 370 371 0
c ret 372 373 374 375 376 377 378 379 380 767 0
c ret 381 382 383 384 385 386 768 769 387 388 0
c ret 770 389 771 390 391 392 393 312 394 395 0
c ret 396 397 398 399 400 401 402 403 404 405 0
c ret 406 772 407 773 408 774 409 410 775 411 0
c ret 412 413 414 415 416 417 418 419 420 421 0
c ret 776 422 423 424 777 425 778 426 779 780 0
c ret 427 428 429 430 431 432 433 313 434 435 0
c ret 436 437 438 439 781 782 440 441 442 443 0
c ret 444 783 445 446 447 448 449 450 451 452 0
c ret 453 784 454 455 456 457 458 785 786 459 0
c ret 460 787 461 462 788 463 464 465 466 467 0
c ret 468 469 470 471 472 473 474 475 476 477 0
c ret 478 479 480 481 482 483 484 485 486 487 0
c ret 488 489 490 491 492 493 494 495 496 497 0
c ret 498 499 500 501 502 503 504 314 505 506 0
c ret 507 508 509 510 511 512 513 514 515 516 0
c ret 517 518 519 520 521 522 523 524 525 526 0
c ret 527 528 529 530 531 532 533 534 535 536 0
c ret 537 538 539 540 541 542 543 315 544 545 0
c ret 546 547 548 549 550 551 552 553 554 555 0
c ret 556 557 558 559 560 561 562 563 564 565 0
c ret 566 567 568 569 570 571 572 573 574 575 0
c ret 576 577 578 579 580 581 582 583 584 585 0
c ret 586 587 588 589 590 591 592 593 594 595 0
c ret 596 597 598 599 600 601 602 603 604 605 0
c ret 606 607 608 609 610 611 612 613 614 0
2 4 5 -304 0
2 3 5 -304 0
-2 304 0
-2 -5 0
-2 -3 -4 0
3 542 0
3 -543 549 0
3 543 550 0
-3 -542 543 -550 0
-3 -542 -543 -549 0
4 542 0
4 -543 -549 0
4 543 -550 0
-4 -542 543 550 0
-4 -542 -543 549 0
5 6 54 110 -131 0
5 -6 -54 110 -131 0
-5 -110 0
-5 6 -54 0
-5 131 0
-5 -6 54 0
6 -7 -11 0
6 -7 50 0
-6 7 0
-6 11 -50 0
4 7 -8 -571 0
3 7 -8 -571 0
-7 8 0
-7 571 0
-3 -4 -7 0
8 -9 -10 0
-8 9 0
-8 10 0
9 -687 -716 0
-9 687 0
-9 716 0
10 -600 -629 -658 0
-10 600 0
-10 629 0
-10 658 0
11 -12 -49 -766 0
11 12 -13 -49 0
-11 49 0
-11 -12 766 0
-11 12 13 0
12 537 -539 0
-12 -537 0
-12 539 0
13 -14 -765 0
13 14 -15 0
-13 -14 765 0
-13 14 15 0
14 509 -511 0
-14 -509 0
-14 511 0
15 16 41 48 0
15 16 41 -44 0
-15 -16 0
-15 -41 0
-15 44 -48 0
16 -39 310 -485 0
16 17 310 485 0
-16 -310 0
-16 39 -485 0
-16 -17 485 0
17 -18 -762 0
-17 762 0
-17 18 0
18 19 -23 0
-18 -19 0
-18 23 0
19 -20 -342 0
19 -22 -342 0
19 -21 -342 0
-19 342 0
-19 20 21 22 0
20 -343 344 345 0
-20 343 0
-20 -345 0
-20 -344 0
21 348 351 352 0
-21 -348 0
-21 -352 0
-21 -351 0
22 -348 349 350 0
-22 348 0
-22 -350 0
-22 -349 0
23 24 -31 0
23 24 34 -375 0
-23 -24 0
-23 31 -34 0
-23 31 375 0
24 -25 28 0
24 28 396 0
-24 -28 0
-24 25 -396 0
25 -27 399 402 0
25 -26 -27 399 0
-25 -399 0
-25 27 0
-25 26 -402 0
26 400 -401 0
-26 -400 0
-26 401 0
27 397 398 0
-27 -397 0
-27 -398 0
26 -27 28 29 -30 0
27 -28 0
-28 -29 0
-26 -28 0
-28 30 0
29 408 409 0
29 408 416 417 0
-29 -408 0
-29 -409 -416 0
-29 -409 -417 0
30 -396 399 402 -403 0
-30 403 0
-30 -402 0
-30 396 0
-30 -399 0
31 32 -368 0
31 33 -368 -374 0
-31 368 0
-31 -32 374 0
-31 -32 -33 0
32 369 370 371 0
-32 -369 0
-32 -371 0
-32 -370 0
33 372 -373 0
-33 -372 0
-33 373 0
34 35 37 0
-34 -35 0
-34 -37 0
35 -36 374 -380 0
-35 36 0
-35 380 0
-35 -374 0
-32 33 36 -368 -375 0
32 -36 0
-33 -36 0
-36 368 0
-36 375 0
-36 37 -38 -388 0
-36 37 -38 -389 0
-37 38 0
36 -37 0
-37 388 389 0
38 374 380 -381 0
-38 381 0
-38 -380 0
-38 -374 0
39 -40 763 0
17 39 40 0
-39 -40 -763 0
-17 -39 40 0
40 451 -453 0
-40 -451 0
-40 453 0
41 -42 -43 -495 0
41 -42 -43 -496 0
-41 43 0
-41 42 0
-41 495 496 0
42 498 499 500 501 0
-42 -501 0
-42 -500 0
-42 -498 0
-42 -499 0
43 -492 -493 -494 497 0
-43 494 0
-43 -497 0
-43 492 0
-43 493 0
39 44 -45 0
-39 -44 0
-44 45 0
45 46 47 0
-45 -46 0
-45 -47 0
46 464 465 466 0
-46 -464 0
-46 -466 0
-46 -465 0
47 472 -474 0
-47 -472 0
-47 474 0
47 48 -310 0
48 -310 764 0
-48 310 0
-47 -48 -764 0
49 -506 513 0
-49 506 0
-49 -513 0
50 51 -506 0
13 15 50 0
15 50 51 0
13 50 -506 0
-15 -50 506 0
-13 -50 -51 0
51 53 -506 -513 0
51 52 -506 -513 0
-51 506 0
-51 513 0
-51 -52 -53 0
52 -514 515 0
-52 514 0
-52 -515 0
53 517 -518 -519 520 0
-53 -517 0
-53 -520 0
-53 519 0
-53 518 0
54 -55 -69 0
54 -55 106 0
-54 55 0
-54 69 -106 0
55 -56 63 0
-55 56 0
-55 -63 0
56 59 -62 0
56 57 58 -62 0
-56 62 0
-56 -58 -59 0
-56 -57 -59 0
57 1021 0
57 -1022 -1028 0
57 1022 -1029 0
-57 -1021 1022 1029 0
-57 -1021 -1022 1028 0
-57 58 0
58 -1030 1036 0
58 1030 1037 0
57 -58 -1030 -1036 0
57 -58 1030 -1037 0
59 -60 -61 0
-57 59 -61 0
-59 61 0
57 -59 60 0
-57 60 0
60 1030 -1037 0
60 -1030 -1036 0
57 -60 -1030 1036 0
57 -60 1030 1037 0
61 1021 0
61 -1022 1028 0
61 1022 1029 0
-61 -1021 1022 -1029 0
-61 -1021 -1022 -1028 0
62 -1079 -1108 -1137 -1166 0
-62 1166 0
-62 1079 0
-62 1137 0
-62 1108 0
63 -64 -65 0
63 -64 -66 -67 0
-63 64 0
-63 65 67 0
-63 65 66 0
64 1050 0
64 -1051 1057 0
64 1051 1058 0
-64 -1050 1051 -1058 0
-64 -1050 -1051 -1057 0
65 1050 0
65 -1051 -1057 0
65 1051 -1058 0
-65 -1050 1051 1058 0
-65 -1050 -1051 1057 0
66 1059 1066 0
66 -1059 1065 0
-66 -1059 -1065 0
-66 1059 -1066 0
67 68 0
-67 -68 0
65 -66 68 0
-65 -68 0
66 -68 0
69 -70 -105 -1216 0
69 70 -71 -105 0
-69 105 0
-69 -70 1216 0
-69 70 71 0
70 1016 -1018 0
-70 -1016 0
-70 1018 0
71 -72 -1215 0
71 72 -73 0
-71 -72 1215 0
-71 72 73 0
72 988 -990 0
-72 -988 0
-72 990 0
73 74 97 104 0
73 74 97 -100 0
-73 -74 0
-73 -97 0
-73 100 -104 0
74 -95 789 -964 0
74 75 789 964 0
-74 -789 0
-74 95 -964 0
-74 -75 964 0
75 -76 -1212 0
-75 1212 0
-75 76 0
76 77 -81 0
-76 -77 0
-76 81 0
77 -78 -821 0
77 -80 -821 0
77 -79 -821 0
-77 821 0
-77 78 79 80 0
78 -822 823 824 0
-78 822 0
-78 -824 0
-78 -823 0
79 827 830 831 0
-79 -827 0
-79 -831 0
-79 -830 0
80 -827 828 829 0
-80 827 0
-80 -829 0
-80 -828 0
81 -88 89 0
81 82 89 -854 0
-81 -89 0
-81 -82 88 0
-81 88 854 0
82 83 0
82 86 -853 0
82 86 859 0
-82 -83 -86 0
-82 -83 853 -859 0
83 -84 85 -847 -854 0
-83 84 0
-83 -85 0
-83 847 0
-83 854 0
84 848 849 850 0
-84 -848 0
-84 -850 0
-84 -849 0
85 851 -852 0
-85 -851 0
-85 852 0
86 87 853 859 -860 0
-86 -853 0
-86 -87 0
-86 860 0
-86 -859 0
87 867 868 0
-87 -867 0
-87 -868 0
84 88 -847 0
85 88 -847 -853 0
-88 847 0
-84 -88 853 0
-84 -85 -88 0
89 91 94 0
89 91 -93 0
89 90 91 0
-89 -91 0
-89 -90 93 -94 0
90 876 877 878 0
-90 -876 0
-90 -878 0
-90 -877 0
90 91 -875 0
91 92 -875 -881 0
-91 875 0
-90 -91 881 0
-90 -91 -92 0
92 879 -880 0
-92 -879 0
-92 880 0
93 887 888 0
93 887 895 896 0
-93 -887 0
-93 -888 -895 0
-93 -888 -896 0
92 94 -875 881 -882 0
-94 882 0
-92 -94 0
-94 875 0
-94 -881 0
95 -96 1213 0
75 95 96 0
-95 -96 -1213 0
-75 -95 96 0
96 930 -932 0
-96 -930 0
-96 932 0
97 -98 -99 -974 0
97 -98 -99 -975 0
-97 99 0
-97 98 0
-97 974 975 0
98 977 978 979 980 0
-98 -980 0
-98 -979 0
-98 -977 0
-98 -978 0
99 -971 -972 -973 976 0
-99 973 0
-99 -976 0
-99 971 0
-99 972 0
95 100 -101 0
-95 -100 0
-100 101 0
101 102 103 0
-101 -102 0
-101 -103 0
102 951 -953 0
-102 -951 0
-102 953 0
103 943 944 945 0
-103 -943 0
-103 -945 0
-103 -944 0
102 104 -789 0
104 -789 1214 0
-104 789 0
-102 -104 -1214 0
105 -985 992 0
-105 985 0
-105 -992 0
106 107 -985 0
71 73 106 0
73 106 107 0
71 106 -985 0
-73 -106 985 0
-71 -106 -107 0
107 109 -985 -992 0
107 108 -985 -992 0
-107 985 0
-107 992 0
-107 -108 -109 0
108 -993 994 0
-108 993 0
-108 -994 0
109 996 -997 -998 999 0
-109 -996 0
-109 -999 0
-109 998 0
-109 997 0
110 111 -121 0
-110 -111 0
-110 121 0
-7 111 -112 0
-7 111 120 0
7 -111 0
-111 112 -120 0
12 -49 112 -113 0
-12 -49 112 -788 0
49 -112 0
12 -112 113 0
-12 -112 788 0
-14 113 -787 0
14 113 -114 0
-14 -113 787 0
14 -113 114 0
41 114 115 119 0
41 114 115 -118 0
-41 -114 0
-114 -115 0
-114 118 -119 0
115 -117 310 -485 0
115 116 310 485 0
-115 -310 0
-115 117 -485 0
-115 -116 485 0
-18 116 -784 0
-116 784 0
18 -116 0
-40 117 785 0
40 116 117 0
-40 -117 -785 0
40 -116 -117 0
-45 117 118 0
45 -118 0
-117 -118 0
47 119 -310 0
119 -310 786 0
-119 310 0
-47 -119 -786 0
113 120 -506 0
51 114 120 0
113 114 120 0
51 120 -506 0
-51 -113 -120 0
-114 -120 506 0
-55 121 -122 0
-55 121 130 0
55 -121 0
-121 122 -130 0
70 -105 122 -123 0
-70 -105 122 -1238 0
105 -122 0
70 -122 123 0
-70 -122 1238 0
-72 123 -1237 0
72 123 -124 0
-72 -123 1237 0
72 -123 124 0
97 124 125 129 0
97 124 125 -128 0
-97 -124 0
-124 -125 0
-124 128 -129 0
125 -127 789 -964 0
125 126 789 964 0
-125 -789 0
-125 127 -964 0
-125 -126 964 0
-76 126 -1234 0
-126 1234 0
76 -126 0
-96 127 1235 0
96 126 127 0
-96 -127 -1235 0
96 -126 -127 0
-101 127 128 0
101 -128 0
-127 -128 0
102 129 -789 0
129 -789 1236 0
-129 789 0
-102 -129 -1236 0
123 130 -985 0
107 124 130 0
123 124 130 0
107 130 -985 0
-107 -123 -130 0
-124 -130 985 0
131 -132 -283 -293 303 0
131 -132 283 293 303 0
-131 -303 0
-131 -283 293 0
-131 132 0
-131 283 -293 0
132 133 142 -151 -200 0
132 -133 -142 -151 -200 0
-132 200 0
-132 -133 142 0
-132 151 0
-132 133 -142 0
-7 133 -134 0
-7 133 141 0
7 -133 0
-133 134 -141 0
12 -49 134 -135 0
-12 -49 134 -761 0
49 -134 0
12 -134 135 0
-12 -134 761 0
-14 135 -760 0
14 135 -136 0
-14 -135 760 0
14 -135 136 0
41 136 137 140 0
41 136 137 -139 0
-41 -136 0
-136 -137 0
-136 139 -140 0
137 -138 310 -485 0
18 137 310 485 0
-137 -310 0
-137 138 -485 0
-18 -137 485 0
-40 138 758 0
18 40 138 0
-40 -138 -758 0
-18 40 -138 0
-45 138 139 0
45 -139 0
-138 -139 0
47 140 -310 0
140 -310 759 0
-140 310 0
-47 -140 -759 0
135 141 -506 0
51 136 141 0
135 136 141 0
51 141 -506 0
-51 -135 -141 0
-136 -141 506 0
-55 142 -143 0
-55 142 150 0
55 -142 0
-142 143 -150 0
70 -105 143 -144 0
-70 -105 143 -1211 0
105 -143 0
70 -143 144 0
-70 -143 1211 0
-72 144 -1210 0
72 144 -145 0
-72 -144 1210 0
72 -144 145 0
97 145 146 149 0
97 145 146 -148 0
-97 -145 0
-145 -146 0
-145 148 -149 0
146 -147 789 -964 0
76 146 789 964 0
-146 -789 0
-146 147 -964 0
-76 -146 964 0
-96 147 1208 0
76 96 147 0
-96 -147 -1208 0
-76 96 -147 0
-101 147 148 0
101 -148 0
-147 -148 0
102 149 -789 0
149 -789 1209 0
-149 789 0
-102 -149 -1209 0
144 150 -985 0
107 145 150 0
144 145 150 0
107 150 -985 0
-107 -144 -150 0
-145 -150 985 0
151 -152 -168 191 0
151 152 168 -182 0
151 152 168 191 0
151 -152 -168 -182 0
-151 152 -168 0
-151 -152 168 0
-151 182 -191 0
152 -153 -154 0
152 -153 -166 0
152 -153 -165 0
-152 153 0
-152 154 165 166 0
-56 153 -1050 0
-153 1050 0
56 -153 0
154 157 -158 0
-101 154 155 -158 0
-154 158 0
-154 -155 -157 0
101 -154 -157 0
-96 155 1227 0
96 155 156 0
-96 -155 -1227 0
96 -155 -156 0
-76 156 -1226 0
-156 1226 0
76 -156 0
102 157 -789 0
157 -789 1228 0
-157 789 0
-102 -157 -1228 0
158 -159 164 0
-158 159 0
-158 -164 0
97 159 160 0
-97 -159 0
-159 -160 0
-72 160 -985 0
160 -161 -985 0
-160 985 0
72 -160 161 0
-70 161 162 992 0
-108 161 162 -992 0
-161 -162 0
108 -161 -992 0
70 -161 992 0
109 162 -163 0
-109 -162 0
-162 163 0
163 -985 -992 -993 994 0
-163 993 0
-163 -994 0
-163 985 0
-163 992 0
-155 164 789 -964 0
156 164 789 964 0
-164 -789 0
155 -164 -964 0
-156 -164 964 0
-70 -105 165 -1230 0
-165 1230 0
70 -165 0
105 -165 0
-72 166 -167 -1229 0
-166 1229 0
72 -166 0
-166 167 0
161 167 -985 0
-167 985 0
-161 -167 0
-7 168 -169 0
-7 168 -180 0
-7 168 -179 0
7 -168 0
-168 169 179 180 0
169 172 -173 0
-45 169 170 -173 0
-169 173 0
-169 -170 -172 0
45 -169 -172 0
-40 170 777 0
40 170 171 0
-40 -170 -777 0
40 -170 -171 0
-18 171 -776 0
-171 776 0
18 -171 0
47 172 -310 0
172 -310 778 0
-172 310 0
-47 -172 -778 0
173 -174 178 0
-173 174 0
-173 -178 0
41 174 175 0
-41 -174 0
-174 -175 0
-14 175 -506 0
175 -176 -506 0
-175 506 0
14 -175 176 0
-12 176 177 513 0
-52 176 177 -513 0
-176 -177 0
52 -176 -513 0
12 -176 513 0
-52 53 177 -506 -513 0
52 -177 0
-53 -177 0
-177 506 0
-177 513 0
-170 178 310 -485 0
171 178 310 485 0
-178 -310 0
170 -178 -485 0
-171 -178 485 0
-12 -49 179 -780 0
-179 780 0
12 -179 0
49 -179 0
-14 180 -181 -779 0
-180 779 0
14 -180 0
-180 181 0
176 181 -506 0
-181 506 0
-176 -181 0
-153 182 -183 0
-153 182 -190 0
-153 182 -189 0
153 -182 0
-182 183 189 190 0
183 186 -187 0
-101 183 184 -187 0
-183 187 0
-183 -184 -186 0
101 -183 -186 0
-96 184 1218 0
96 184 185 0
-96 -184 -1218 0
96 -184 -185 0
-76 185 -1217 0
-185 1217 0
76 -185 0
102 186 -789 0
186 -789 1219 0
-186 789 0
-102 -186 -1219 0
-159 187 188 0
159 -187 0
-187 -188 0
-184 188 789 -964 0
185 188 789 964 0
-188 -789 0
184 -188 -964 0
-185 -188 964 0
-70 -105 189 -1221 0
-189 1221 0
70 -189 0
105 -189 0
-72 -167 190 -1220 0
-190 1220 0
72 -190 0
167 -190 0
-7 191 -192 0
-7 191 -199 0
-7 191 -198 0
7 -191 0
-191 192 198 199 0
192 195 -196 0
-45 192 193 -196 0
-192 196 0
-192 -193 -195 0
45 -192 -195 0
-40 193 768 0
40 193 194 0
-40 -193 -768 0
40 -193 -194 0
-18 194 -767 0
-194 767 0
18 -194 0
47 195 -310 0
195 -310 769 0
-195 310 0
-47 -195 -769 0
-174 196 197 0
174 -196 0
-196 -197 0
-193 197 310 -485 0
194 197 310 485 0
-197 -310 0
193 -197 -485 0
-194 -197 485 0
-12 -49 198 -771 0
-198 771 0
12 -198 0
49 -198 0
-14 -181 199 -770 0
-199 770 0
14 -199 0
181 -199 0
200 201 211 -222 282 0
200 -201 -211 -222 282 0
-200 -282 0
-200 -201 211 0
-200 222 0
-200 201 -211 0
-55 160 201 202 0
-55 201 202 210 0
55 -201 0
-201 -202 0
-160 -201 -210 0
202 204 985 0
72 202 203 204 0
-202 -204 0
-202 -203 -985 0
-72 -202 -985 0
-70 203 992 -1225 0
70 -203 0
-203 1225 0
-203 -992 0
97 204 205 209 0
97 204 205 -208 0
-97 -204 0
-204 -205 0
-204 208 -209 0
205 -207 789 -964 0
205 206 789 964 0
-205 -789 0
-205 207 -964 0
-205 -206 964 0
-76 206 -793 0
-206 793 0
76 -206 0
-96 207 1222 0
96 206 207 0
-96 -207 -1222 0
96 -206 -207 0
-101 207 208 0
101 -208 0
-207 -208 0
102 209 -789 0
209 -789 1223 0
-209 789 0
-102 -209 -1223 0
-161 203 210 0
203 210 1224 0
-203 -210 0
161 -210 -1224 0
-7 175 211 212 0
-7 211 212 221 0
7 -211 0
-211 -212 0
-175 -211 -221 0
212 -214 215 0
14 212 213 215 0
-212 -215 0
-212 -213 214 0
-14 -212 214 0
-12 213 513 -775 0
12 -213 0
-213 775 0
-213 -513 0
14 214 506 0
214 506 774 0
177 214 506 0
-214 -506 0
-14 -177 -214 -774 0
41 215 216 220 0
41 215 216 -219 0
-41 -215 0
-215 -216 0
-215 219 -220 0
216 -218 310 -485 0
216 217 310 485 0
-216 -310 0
-216 218 -485 0
-216 -217 485 0
-18 217 -314 0
-217 314 0
18 -217 0
-40 218 772 0
40 217 218 0
-40 -218 -772 0
40 -217 -218 0
-45 218 219 0
45 -219 0
-218 -219 0
47 220 -310 0
220 -310 773 0
-220 310 0
-47 -220 -773 0
-176 213 221 0
213 221 774 0
-213 -221 0
176 -221 -774 0
222 -223 -255 -269 0
222 238 -255 -269 0
-222 269 0
-222 255 0
-222 223 -238 0
223 224 -233 0
-223 -224 0
-223 233 0
224 231 232 0
224 -225 229 0
224 -225 231 0
-224 -229 -231 0
-224 225 -232 0
-224 225 -231 0
225 226 -908 0
-81 225 -228 908 0
-225 -226 -908 0
81 -225 908 0
-225 228 908 0
-81 226 -227 0
81 -226 0
-226 227 0
227 -1195 -1197 0
77 227 1195 0
227 -1195 -1201 0
-77 -227 1195 0
-227 -1195 1197 1201 0
228 -1195 1197 1203 0
-228 1195 0
-228 -1203 0
-228 -1197 0
229 -230 964 965 968 0
-229 230 0
-229 -968 0
-229 -964 0
-229 -965 0
230 966 967 0
-230 -966 0
-230 -967 0
-226 231 789 0
229 231 789 0
-231 -789 0
226 -229 -231 0
103 232 -789 0
-232 789 0
-103 -232 0
233 -234 -235 0
-233 234 0
-233 235 0
63 234 -1079 -1108 -1137 0
-234 1137 0
-63 -234 0
-234 1079 0
-234 1108 0
59 235 -236 0
58 235 -236 -1021 0
-235 236 0
-58 -59 -235 0
-59 -235 1021 0
236 -237 -1166 0
-236 1166 0
-236 237 0
97 163 237 0
97 109 237 0
-97 -237 0
-109 -163 -237 0
238 239 -248 0
-238 -239 0
-238 248 0
239 246 247 0
239 -240 244 0
239 -240 246 0
-239 -244 -246 0
-239 240 -247 0
-239 240 -246 0
240 241 -429 0
-23 240 -243 429 0
-240 -241 -429 0
23 -240 429 0
-240 243 429 0
-23 241 -242 0
23 -241 0
-241 242 0
242 -745 -747 0
19 242 745 0
242 -745 -751 0
-19 -242 745 0
-242 -745 747 751 0
243 -745 747 753 0
-243 745 0
-243 -753 0
-243 -747 0
244 -245 485 486 489 0
-244 245 0
-244 -489 0
-244 -485 0
-244 -486 0
245 487 488 0
-245 -487 0
-245 -488 0
-241 246 310 0
244 246 310 0
-246 -310 0
241 -244 -246 0
46 247 -310 0
-247 310 0
-46 -247 0
-10 248 -249 0
10 -248 0
-248 249 0
-9 249 250 -253 -571 0
-249 253 0
-249 571 0
9 -249 0
-249 -250 0
-3 250 252 542 0
-3 250 -251 252 0
3 -250 0
-250 -252 0
-250 251 -542 0
-4 251 0
251 -551 557 0
251 551 558 0
4 -251 -551 -557 0
4 -251 551 -558 0
4 252 -551 557 0
4 252 551 558 0
-4 -252 0
-252 551 -558 0
-252 -551 -557 0
41 253 254 0
41 53 253 0
41 253 506 0
-41 -253 0
-53 -253 -254 -506 0
-52 254 -513 0
-254 513 0
52 -254 0
255 256 259 261 -262 0
255 -256 -259 261 -262 0
-255 -261 0
-255 256 -259 0
-255 262 0
-255 -256 259 0
-23 -249 256 257 -258 0
-256 258 0
23 -256 0
249 -256 0
-256 -257 0
-46 257 -310 0
-257 310 0
46 -257 0
-10 258 -745 747 0
-258 745 0
-258 -747 0
10 -258 0
-81 -234 -235 259 -260 0
-259 260 0
81 -259 0
235 -259 0
234 -259 0
260 789 -1195 1197 0
103 260 -1195 1197 0
-260 1195 0
-260 -1197 0
-103 -260 -789 0
-64 -65 -67 261 0
-64 -66 -67 261 0
67 -261 0
64 -261 0
65 66 -261 0
60 262 -263 0
58 262 -263 0
61 262 -263 0
-262 263 0
-58 -60 -61 -262 0
82 89 263 -264 0
-88 89 263 -264 0
-263 264 0
-89 -263 0
-82 88 -263 0
77 -237 264 265 -266 0
237 -264 0
-264 -265 0
-77 -264 0
-264 266 0
-103 265 -789 0
-265 789 0
103 -265 0
266 -267 -268 -1079 -1166 0
-266 268 0
-266 1079 0
-266 267 0
-266 1166 0
267 -1108 -1137 0
-267 1108 0
-267 1137 0
268 -792 -793 0
268 -791 794 0
268 -791 -793 0
268 -792 794 0
-268 793 -794 0
-268 791 792 0
223 269 -270 -276 0
-238 269 270 276 0
223 269 270 276 0
-238 269 -270 -276 0
-269 270 -276 0
-269 -270 276 0
-223 238 -269 0
270 -274 789 0
103 270 -271 -274 0
-270 274 0
-270 271 -789 0
-103 -270 -789 0
271 908 -1233 0
271 -272 -908 0
-271 272 -908 0
-271 908 1233 0
-81 272 -1195 0
77 -81 272 273 0
81 -272 0
-272 -273 1195 0
-77 -272 1195 0
273 800 1232 0
-273 -800 0
-273 -1232 0
-233 274 275 0
233 -274 0
-274 -275 0
229 271 275 0
271 272 275 0
-229 272 275 789 0
-229 -272 -275 0
229 -271 -275 0
-271 -275 -789 0
276 -280 310 0
46 276 -277 -280 0
-276 280 0
-276 277 -310 0
-46 -276 -310 0
277 429 -783 0
277 -278 -429 0
-277 278 -429 0
-277 429 783 0
-23 278 -745 0
19 -23 278 279 0
23 -278 0
-278 -279 745 0
-19 -278 745 0
279 321 782 0
-279 -321 0
-279 -782 0
-248 280 281 0
248 -280 0
-280 -281 0
244 277 281 0
277 278 281 0
-244 278 281 310 0
-244 -278 -281 0
244 -277 -281 0
-277 -281 -310 0
-182 191 282 0
182 -282 0
-191 -282 0
-7 283 -284 0
-7 283 292 0
7 -283 0
-283 284 -292 0
12 -49 284 -285 0
-12 -49 284 -757 0
49 -284 0
12 -284 285 0
-12 -284 757 0
-14 285 -756 0
14 285 -286 0
-14 -285 756 0
14 -285 286 0
41 286 287 291 0
41 286 287 -290 0
-41 -286 0
-286 -287 0
-286 290 -291 0
287 288 -310 755 0
47 287 288 -310 0
-287 310 0
-287 -288 0
-47 -287 -755 0
-45 288 289 0
45 -288 0
-288 -289 0
18 40 289 0
-40 289 754 0
40 289 315 0
-40 -289 -754 0
-18 40 -289 -315 0
-18 40 290 -315 0
-18 290 -315 485 0
18 -290 0
-290 315 0
-40 -290 -485 0
291 310 754 0
291 310 485 0
40 291 310 0
-291 -310 0
-40 -291 -485 -754 0
285 292 -506 0
51 286 292 0
285 286 292 0
51 292 -506 0
-51 -285 -292 0
-286 -292 506 0
-55 293 -294 0
-55 293 302 0
55 -293 0
-293 294 -302 0
70 -105 294 -295 0
-70 -105 294 -1207 0
105 -294 0
70 -294 295 0
-70 -294 1207 0
-72 295 -1206 0
72 295 -296 0
-72 -295 1206 0
72 -295 296 0
97 296 297 301 0
97 296 297 -300 0
-97 -296 0
-296 -297 0
-296 300 -301 0
297 298 -789 1205 0
102 297 298 -789 0
-297 789 0
-297 -298 0
-102 -297 -1205 0
-101 298 299 0
101 -298 0
-298 -299 0
76 96 299 0
-96 299 1204 0
96 299 794 0
-96 -299 -1204 0
-76 96 -299 -794 0
-76 96 300 -794 0
-76 300 -794 964 0
76 -300 0
-300 794 0
-96 -300 -964 0
301 789 1204 0
301 789 964 0
96 301 789 0
-301 -789 0
-96 -301 -964 -1204 0
295 302 -985 0
107 296 302 0
295 296 302 0
107 302 -985 0
-107 -295 -302 0
-296 -302 985 0
-111 121 303 0
111 -303 0
-121 -303 0
19 -253 304 305 -306 0
253 -304 0
-304 -305 0
-19 -304 0
-304 306 0
31 35 37 305 0
-31 -305 0
-37 -305 0
-35 -305 0
24 306 -307 310 0
24 46 306 -307 0
-306 307 0
-24 -306 0
-46 -306 -310 0
-9 307 -308 -629 -658 0
-307 308 0
-307 629 0
9 -307 0
-307 658 0
308 -309 -314 0
308 -309 315 0
-308 309 0
-308 314 -315 0
309 -312 -571 -600 0
309 -313 -571 -600 0
-309 600 0
-309 571 0
-309 312 313 0
1 2 0
-1 -2 0
1239 0

